LAMMPS (30 Dec 2013)
# sample surface deposition script for molecules

units		lj
atom_style      bond
boundary        p p f

lattice		fcc 1.0
Lattice spacing in x,y,z = 1.5874 1.5874 1.5874
region          box block 0 5 0 5 0 10
create_box      3 box "bond types" 1 "extra bond per atom" 1
Created orthogonal box = (0 0 0) to (7.93701 7.93701 15.874)
  1 by 1 by 4 MPI processor grid

region		substrate block INF INF INF INF INF 3
create_atoms	1 region substrate
Created 350 atoms

pair_style	lj/cut 2.5
pair_coeff	* * 1.0 1.0
pair_coeff	1 2 1.0 1.0 5.0
mass		* 1.0

bond_style	harmonic
bond_coeff      1 5.0 1.0

neigh_modify	delay 0

group		addatoms type 2
0 atoms in group addatoms
region          mobile block 0 5 0 5 2 INF
group		mobile region mobile
150 atoms in group mobile

compute		add addatoms temp
compute_modify	add dynamic yes extra 0

fix		1 addatoms nve
fix		2 mobile langevin 0.1 0.1 0.1 587283
fix		3 mobile nve

molecule        dimer molecule.dimer
region          slab block 0 5 0 5 8 9
fix		4 addatoms deposit 100 0 100 12345 region slab near 1.0                 mol dimer vz -1.0 -1.0
fix		5 addatoms wall/reflect zhi EDGE

thermo_style	custom step atoms temp epair etotal press
thermo          100
thermo_modify	temp add lost/bond ignore lost warn
WARNING: Temperature for thermo pressure is not for group all (../thermo.cpp:439)

#dump		1 all atom 50 dump.deposit.atom

#dump		1 all movie 50 image.*.jpg type type #		axes yes 0.8 0.02 view 80 -30
#dump_modify	1 pad 5

#dump		1 all movie 50 movie.mpg type type #		axes yes 0.8 0.02 view 80 -30
#dump_modify	1 pad 5

run             10000
Memory usage per processor = 2.83497 Mbytes
Step Atoms Temp E_pair TotEng Press 
       0      350            0   -6.9215833   -6.9215833   -1.0052629 
     100      352   0.83994737   -6.8946578   -6.8874992  -0.73775337 
     200      354   0.83994737   -6.8644786   -6.8502422  -0.69623155 
     300      356   0.83994737    -6.821588   -6.8003534  -0.69525265 
     400      358   0.84042015    -6.783499   -6.7553282  -0.68860116 
     500      360   0.84184269   -6.7432459   -6.7081686  -0.72724605 
     600      362    0.8458127   -6.7144697   -6.6724104  -0.66535013 
     700      364   0.87383242   -6.6725197   -6.6220566  -0.66071708 
     800      366   0.87696132   -6.6413623   -6.5830213  -0.66927232 
     900      368   0.89744792   -6.6071502   -6.5409657  -0.62868608 
    1000      370   0.99832562    -6.591423    -6.509704  -0.68145874 
    1100      372   0.83690497   -6.5836533   -6.5010396  -0.63926628 
    1200      374   0.88380837   -6.5576129   -6.4700582   -0.6448691 
    1300      376   0.93920197   -6.5480148   -6.4485844  -0.67509018 
    1400      378    1.0819467   -6.5984857   -6.4753138  -0.62854894 
    1500      380   0.72832384   -6.6161872   -6.5284826  -0.63429953 
    1600      382   0.63213539   -6.5990997   -6.5150252  -0.67037851 
    1700      384    0.5824052    -6.588541   -6.5069607  -0.69907025 
    1800      386   0.72529167   -6.5843125    -6.478207  -0.62283149 
    1900      388   0.57664201   -6.5677387   -6.4698656  -0.65451624 
    2000      390   0.65546977   -6.5676639   -6.4578769  -0.67432025 
    2100      392   0.69516646   -6.5858998   -6.4683877  -0.62289901 
    2200      394   0.56654159    -6.583766   -6.4770207  -0.70102083 
    2300      396   0.64110841    -6.598494   -6.4743096  -0.66950817 
    2400      398   0.52329199   -6.6104218   -6.4917721  -0.69664414 
    2500      400   0.55744613   -6.6221319   -6.4934736  -0.67790032 
    2600      402   0.46920185   -6.6192179   -6.5005058   -0.6830418 
    2700      404   0.56776413   -6.6299774   -6.4918044  -0.68598379 
    2800      406   0.44695801   -6.6053321   -6.4845111  -0.60979234 
    2900      408   0.51785351    -6.610722   -6.4741891  -0.62751234 
    3000      410   0.58665518   -6.6389279   -6.4792835  -0.64022876 
    3100      412     0.423824   -6.6194712   -6.4927699  -0.66450673 
    3200      414   0.45133153   -6.6230652   -6.4839389  -0.74364185 
    3300      416   0.51641116   -6.6567861     -6.49277  -0.64795831 
    3400      418   0.47621669   -6.6912734    -6.531463  -0.71160352 
    3500      420   0.38209486   -6.6823272   -6.5355428  -0.69351964 
    3600      422   0.44576071   -6.6807448   -6.5147154  -0.74737153 
    3700      424   0.41694154   -6.6822051   -6.5174366  -0.68130033 
    3800      426   0.40975915   -6.7048899   -6.5360548  -0.72002151 
    3900      428   0.48398461   -6.7282377   -6.5350708  -0.74439115 
    4000      430   0.36367577   -6.7208528   -6.5534139  -0.63650412 
    4100      432   0.34028562   -6.7242165   -6.5649615  -0.70137882 
    4200      434   0.33582497    -6.722058   -6.5514851  -0.76135001 
    4300      436    0.3825237   -6.7180169   -6.5381019  -0.70786373 
    4400      438   0.52062671   -6.7481686   -6.5135064  -0.73624603 
    4500      440   0.40436975   -6.7359486   -6.5304443  -0.79135494 
    4600      442   0.44491445   -6.7486865   -6.5249583  -0.76722101 
    4700      444   0.42190093   -6.7620999   -6.5568957  -0.68635283 
    4800      446   0.43599741   -6.7597134   -6.5440627  -0.77969628 
    4900      448   0.47851973   -6.7786447   -6.5458666  -0.74770553 
    5000      450   0.36262781   -6.8254599   -6.6092673  -0.71317359 
    5100      452   0.33856471   -6.8140502   -6.6072777  -0.70403037 
    5200      454   0.39260588    -6.835737   -6.6062808  -0.79831143 
    5300      456   0.31209864   -6.8230791   -6.6185118  -0.70136268 
    5400      458   0.31219166   -6.8170389   -6.6118122  -0.75454291 
    5500      460   0.33107044   -6.8102616   -6.5929746  -0.75347113 
    5600      462   0.40659306   -6.8413513   -6.5940668  -0.71199073 
    5700      464   0.35864173   -6.8618978   -6.6302942  -0.68000488 
    5800      466   0.35595504   -6.8739057    -6.637045  -0.72726368 
    5900      468   0.30133562   -6.8629749   -6.6404473  -0.79721111 
    6000      470   0.32080099    -6.860886    -6.631765  -0.79848812 
    6100      472   0.27961391   -6.8709022   -6.6465395  -0.71256878 
    6200      474   0.31406154   -6.8829903   -6.6410549   -0.7089865 
    6300      476   0.36004409   -6.9012979   -6.6442205  -0.77551843 
    6400      478   0.32635204   -6.8936662   -6.6413458   -0.6682556 
    6500      480   0.32068722   -6.8935855   -6.6453583   -0.7254097 
    6600      482   0.32713469   -6.9215037   -6.6558734  -0.76984099 
    6700      484   0.36721979   -6.9207471   -6.6473085  -0.75359037 
    6800      486   0.38350491   -6.9354455   -6.6470817  -0.79067926 
    6900      488    0.3250273   -6.9458853   -6.6769931  -0.67224329 
    7000      490   0.32830721   -6.9469844   -6.6778539   -0.7619618 
    7100      492   0.33730308   -6.9374197   -6.6588506  -0.78689069 
    7200      494   0.30775449   -6.9609022   -6.6952452  -0.67621108 
    7300      496   0.28573367   -6.9569147   -6.7028926  -0.67991253 
    7400      498   0.28191768    -6.988469   -6.7220227  -0.87179721 
    7500      500   0.31351279   -6.9987024   -6.7160563  -0.82937872 
    7600      502   0.28969341   -7.0254266   -6.7316544  -0.77890838 
    7700      504   0.28407599   -7.0337382   -6.7311947  -0.80238049 
    7800      506   0.29761165   -7.0326028    -6.731669   -0.8371957 
    7900      508   0.34677565   -7.0523551   -6.7260518   -0.8740631 
    8000      510    0.3118165   -7.0626608   -6.7450993  -0.77834874 
    8100      512   0.29761479   -7.0754729   -6.7620945  -0.74405688 
    8200      514   0.30483577   -7.0905149   -6.7644188  -0.85441065 
    8300      516   0.33684783   -7.1137001   -6.7534121  -0.82965734 
    8400      518   0.27961357   -7.0957286   -6.7677311  -0.78630354 
    8500      520   0.30612337   -7.1335883   -6.7809001  -0.83422091 
    8600      522   0.29624122   -7.1270458   -6.7835376  -0.84386217 
    8700      524   0.29657024   -7.1402335   -6.7844074  -0.69683349 
    8800      526    0.3086498    -7.137074   -6.7768455  -0.80569969 
    8900      528   0.26822775   -7.1262968   -6.7891397  -0.78344768 
    9000      530   0.29595187   -7.1836398   -6.8037091  -0.80740794 
    9100      532   0.27991165    -7.178976   -6.8079248  -0.71421566 
    9200      534   0.27664216   -7.1784888   -6.8037579  -0.84396547 
    9300      536   0.27879865   -7.2033389   -6.8100683  -0.64262205 
    9400      538   0.28514769   -7.1987974   -6.8126137   -0.7018808 
    9500      540   0.32951622   -7.2371185   -6.8151986  -0.88679168 
    9600      542   0.35683108   -7.2746833    -6.821215  -0.81047037 
    9700      544   0.29775774   -7.2584568   -6.8336125  -0.85576789 
    9800      546   0.29002392   -7.2763888   -6.8501209  -0.81455861 
    9900      548   0.31009857   -7.2950962    -6.852398  -0.93711055 
   10000      550   0.28745157   -7.3035265   -6.8657121  -0.90926429 
Loop time of 5.64819 on 4 procs for 10000 steps with 550 atoms

Pair  time (%) = 1.02706 (18.1839)
Bond  time (%) = 0.00374371 (0.0662816)
Neigh time (%) = 0.562528 (9.95945)
Comm  time (%) = 2.94816 (52.1966)
Outpt time (%) = 0.0134226 (0.237645)
Other time (%) = 1.09327 (19.3561)

Nlocal:    137.5 ave 298 max 3 min
Histogram: 2 0 0 0 0 0 0 1 0 1
Nghost:    1917.25 ave 2722 max 455 min
Histogram: 1 0 0 0 0 0 1 0 0 2
Neighs:    9881.5 ave 24370 max 1 min
Histogram: 2 0 0 0 0 0 1 0 0 1

Total # of neighbors = 39526
Ave neighs/atom = 71.8655
Ave special neighs/atom = 0.363636
Neighbor list builds = 879
Dangerous builds = 0
